p cnf 91 160                
-1 -30 0
2 -30 0
1 -2 30 0
-30 5 -33 0
30 8 -33 0
5 8 -33 0
33 -64 0
-4 38 0
-2 -34 0
1 -34 0
2 -1 34 0
-34 38 0
4 34 -38 0
38 -40 0
-7 39 0
-30 39 0
7 30 -39 0
39 -40 0
-38 -39 40 0
40 44 0
-3 35 0
-34 35 0
3 34 -35 0
35 -37 0
-6 36 0
-30 36 0
6 30 -36 0
36 -37 0
-35 -36 37 0
37 44 0
-40 -37 -44 0
44 -48 0
-37 45 0
-40 45 0
37 40 -45 0
45 46 0
-5 41 0
-34 41 0
5 34 -41 0
41 -43 0
-8 42 0
-30 42 0
8 30 -42 0
42 -43 0
-41 -42 43 0
43 46 0
-45 -43 -46 0
46 -48 0
-43 47 0
-45 47 0
43 45 -47 0
47 -48 0
-44 -46 -47 48 0
10 -52 0
-43 -49 0
-40 -49 0
-37 -49 0
47 49 -50 0
50 -52 0
-48 40 -55 0
48 52 -55 0
40 52 -55 0
55 -64 0
33 -63 0
9 -51 0
50 -51 0
-48 37 -54 0
48 51 -54 0
37 51 -54 0
54 -63 0
-30 4 -32 0
30 7 -32 0
4 7 -32 0
32 -62 0
11 -53 0
50 -53 0
-48 43 -56 0
48 53 -56 0
43 53 -56 0
56 -62 0
32 -60 0
54 -60 0
-30 3 -31 0
30 6 -31 0
3 6 -31 0
31 -59 0
56 -59 0
31 -58 0
55 -58 0
64 63 62 60 59 58 66 0
-66 -67 0
-2 -1 -12 0
12 -14 0
1 2 -13 0
13 -14 0
14 -67 0
-4 -3 -15 0
15 -19 0
-3 16 0
-4 16 0
3 4 -16 0
-16 -5 -17 0
17 -19 0
5 16 -18 0
18 -19 0
19 -67 0
-7 -6 -20 0
20 -24 0
-6 21 0
-7 21 0
6 7 -21 0
-21 -8 -22 0
22 -24 0
8 21 -23 0
23 -24 0
24 -67 0
-10 -9 -25 0
25 -29 0
-9 26 0
-10 26 0
9 10 -26 0
-26 -11 -27 0
27 -29 0
11 26 -28 0
28 -29 0
29 -67 0
-3 4 -68 0
68 -78 0
-3 -4 69 0
3 4 69 0
-4 4 69 0
-6 7 -70 0
-69 70 -71 0
71 -78 0
-6 -7 72 0
6 7 72 0
-7 7 72 0
-69 -72 73 0
-9 10 -74 0
-73 74 -75 0
75 -78 0
78 -90 0
-4 5 -79 0
79 -89 0
-4 -5 80 0
4 5 80 0
-5 5 80 0
-7 8 -81 0
-80 81 -82 0
82 -89 0
-7 -8 83 0
7 8 83 0
-8 8 83 0
-80 -83 84 0
-10 11 -85 0
-84 85 -86 0
86 -89 0
89 -90 0
67 0
90 0
